fitness = 1.0
6 5 1 6 5 1 6 5 1 6 5 1 6 5 1 6 5 1 6 5 1 6 5 1 6 5 1 6 5 1 6 5 1 6 5 1 6 5 1 6 5 1 6 5 1 6 5 1 6 5 1 6 5 1 6 5 1 6 5 1 6 5 1 6 5 1 6 5 1 6 5 1 6 5 1 6 5 1 6 5 1 6 5 1 6 5 1 6 5 1 6 6 6 6 6 6 6 6 6 6 6 6 6 6 6 6 6 6 6 6 6 6 6 6 6 6 6 6 6 6 6 6 6 6 6 6 6 6 6 6 6 6 6 6 6 6 6 6 6 6 6 6 6 6 6 6 6 6 6 6 6 6 6 6 6 6 6 6 6 6 6 6 6 6 6 6 6 6 6 6 6 6 6 6 6 6 6 6 6 6 6 6 6 6 6 6 6 6 6 6 6 6 6 6 6 6 6 6 6 6 6 6 6 6 6 6 6 6 6 6 6 6 6 6 6 6 6 6 6 6 6 6 6 6 6 6 6 6 6 6 6 6 6 6 6 6 6 6 6 6 6 6 6 6 6 6 6 6 6 6 6 6 6 6 6 6 6 6 6 6 6 6 6 6 6 6 6 6 6 6 6 6 6 6 6 6 6 6 6 6 6 6 6 6 6 6 6 6 6 6 6 6 6 6 6 6 